4 10 100 1 2
0 200
 1 40.00 50.00 0.00 0.00 0.00 0 0 0 1236
 2 45.00 68.00 90.00 10.00 20.00 1 1 1 885 994
 3 45.00 70.00 90.00 30.00 10.00 1 1 1 802 893
 4 42.00 66.00 90.00 10.00 10.00 1 1 1 25 186
 5 42.00 68.00 90.00 10.00 10.00 1 1 1 699 810
 6 42.00 65.00 90.00 10.00 20.00 1 1 1 15 120
 7 40.00 69.00 90.00 20.00 30.00 1 1 1 580 743
 8 40.00 66.00 90.00 20.00 20.00 1 1 1 142 253
 9 38.00 68.00 90.00 20.00 10.00 1 1 1 220 359
 10 38.00 70.00 90.00 10.00 30.00 1 1 1 499 640
 11 35.00 66.00 90.00 10.00 10.00 1 1 1 331 436
 12 35.00 69.00 90.00 10.00 20.00 1 1 1 420 533
 13 25.00 85.00 90.00 20.00 10.00 1 1 1 617 756
 14 22.00 75.00 90.00 30.00 20.00 1 1 1 30 155
 15 22.00 85.00 90.00 10.00 10.00 1 1 1 541 646
 16 20.00 80.00 90.00 40.00 10.00 1 1 1 362 451
 17 20.00 85.00 90.00 40.00 20.00 1 1 1 448 555
 18 18.00 75.00 90.00 20.00 20.00 1 1 1 75 172
 19 15.00 75.00 90.00 20.00 10.00 1 1 1 142 291
 20 15.00 80.00 90.00 10.00 10.00 1 1 1 244 379
 21 30.00 50.00 90.00 10.00 10.00 1 1 1 10 137
 22 30.00 52.00 90.00 20.00 20.00 1 1 1 888 991
 23 28.00 52.00 90.00 20.00 30.00 1 1 1 776 919
 24 28.00 55.00 90.00 10.00 10.00 1 1 1 709 800
 25 25.00 50.00 90.00 10.00 40.00 1 1 1 25 184
 26 25.00 52.00 90.00 40.00 10.00 1 1 1 142 251
 27 25.00 55.00 90.00 10.00 10.00 1 1 1 582 741
 28 23.00 52.00 90.00 10.00 10.00 1 1 1 234 343
 29 23.00 55.00 90.00 20.00 20.00 1 1 1 523 616
 30 20.00 50.00 90.00 10.00 10.00 1 1 1 335 428
 31 20.00 55.00 90.00 10.00 30.00 1 1 1 422 531
 32 10.00 35.00 90.00 20.00 10.00 1 1 1 181 256
 33 10.00 40.00 90.00 30.00 30.00 1 1 1 31 170
 34 8.00 40.00 90.00 40.00 10.00 1 1 1 52 193
 35 8.00 45.00 90.00 20.00 10.00 1 1 1 719 848
 36 5.00 35.00 90.00 10.00 10.00 1 1 1 252 375
 37 5.00 45.00 90.00 10.00 10.00 1 1 1 639 742
 38 2.00 40.00 90.00 20.00 10.00 1 1 1 357 460
 39 0.00 40.00 90.00 30.00 20.00 1 1 1 457 544
 40 0.00 45.00 90.00 20.00 10.00 1 1 1 538 653
 41 35.00 30.00 90.00 10.00 40.00 1 1 1 236 349
 42 35.00 32.00 90.00 10.00 10.00 1 1 1 132 269
 43 33.00 32.00 90.00 20.00 40.00 1 1 1 27 190
 44 33.00 35.00 90.00 10.00 10.00 1 1 1 16 144
 45 32.00 30.00 90.00 10.00 30.00 1 1 1 332 439
 46 30.00 30.00 90.00 10.00 30.00 1 1 1 512 629
 47 30.00 32.00 90.00 30.00 30.00 1 1 1 417 540
 48 30.00 35.00 90.00 10.00 10.00 1 1 1 982 1127
 49 28.00 30.00 90.00 10.00 20.00 1 1 1 601 724
 50 28.00 35.00 90.00 10.00 10.00 1 1 1 969 1098
 51 26.00 32.00 90.00 10.00 10.00 1 1 1 783 912
 52 25.00 30.00 90.00 10.00 10.00 1 1 1 695 816
 53 25.00 35.00 90.00 10.00 10.00 1 1 1 883 998
 54 44.00 5.00 90.00 20.00 40.00 1 1 1 255 378
 55 42.00 10.00 90.00 40.00 10.00 1 1 1 150 293
 56 42.00 15.00 90.00 10.00 10.00 1 1 1 63 190
 57 40.00 5.00 90.00 30.00 10.00 1 1 1 359 462
 58 40.00 15.00 90.00 40.00 10.00 1 1 1 35 140
 59 38.00 5.00 90.00 30.00 30.00 1 1 1 439 566
 60 38.00 15.00 90.00 10.00 10.00 1 1 1 607 784
 61 35.00 5.00 90.00 20.00 40.00 1 1 1 529 662
 62 50.00 30.00 90.00 10.00 10.00 1 1 1 491 650
 63 50.00 35.00 90.00 20.00 30.00 1 1 1 235 344
 64 50.00 40.00 90.00 50.00 10.00 1 1 1 147 242
 65 48.00 30.00 90.00 10.00 10.00 1 1 1 601 724
 66 48.00 40.00 90.00 10.00 40.00 1 1 1 50 155
 67 47.00 35.00 90.00 10.00 20.00 1 1 1 802 899
 68 47.00 40.00 90.00 10.00 10.00 1 1 1 12 143
 69 45.00 30.00 90.00 10.00 10.00 1 1 1 712 799
 70 45.00 35.00 90.00 10.00 20.00 1 1 1 889 996
 71 95.00 30.00 90.00 30.00 20.00 1 1 1 353 490
 72 95.00 35.00 90.00 20.00 10.00 1 1 1 260 393
 73 53.00 30.00 90.00 10.00 10.00 1 1 1 422 533
 74 92.00 30.00 90.00 10.00 20.00 1 1 1 442 587
 75 53.00 35.00 90.00 50.00 20.00 1 1 1 323 442
 76 45.00 65.00 90.00 20.00 10.00 1 1 1 962 1103
 77 90.00 35.00 90.00 10.00 10.00 1 1 1 175 288
 78 88.00 30.00 90.00 10.00 30.00 1 1 1 539 678
 79 88.00 35.00 90.00 20.00 20.00 1 1 1 78 201
 80 87.00 30.00 90.00 10.00 20.00 1 1 1 636 763
 81 85.00 25.00 90.00 10.00 40.00 1 1 1 744 845
 82 85.00 35.00 90.00 30.00 20.00 1 1 1 47 201
 83 75.00 55.00 90.00 20.00 10.00 1 1 1 344 445
 84 72.00 55.00 90.00 10.00 30.00 1 1 1 228 375
 85 70.00 58.00 90.00 20.00 10.00 1 1 1 425 556
 86 68.00 60.00 90.00 30.00 20.00 1 1 1 527 640
 87 66.00 55.00 90.00 10.00 20.00 1 1 1 141 270
 88 65.00 55.00 90.00 20.00 10.00 1 1 1 56 173
 89 65.00 60.00 90.00 30.00 10.00 1 1 1 614 739
 90 63.00 58.00 90.00 10.00 20.00 1 1 1 705 834
 91 60.00 55.00 90.00 10.00 20.00 1 1 1 20 148
 92 60.00 60.00 90.00 10.00 10.00 1 1 1 809 916
 93 67.00 85.00 90.00 20.00 50.00 1 1 1 331 478
 94 65.00 85.00 90.00 40.00 20.00 1 1 1 453 540
 95 65.00 82.00 90.00 10.00 10.00 1 1 1 260 361
 96 62.00 80.00 90.00 30.00 30.00 1 1 1 174 261
 97 60.00 80.00 90.00 10.00 20.00 1 1 1 64 187
 98 60.00 85.00 90.00 30.00 20.00 1 1 1 531 652
 99 58.00 75.00 90.00 20.00 10.00 1 1 1 30 139
 100 55.00 80.00 90.00 10.00 10.00 1 1 1 705 858
 101 55.00 85.00 90.00 20.00 50.00 1 1 1 608 765
